src/swarm_exploration/utils/lkh_mtsp_solver/resource/amtsp3_3.atsp
NAME : pairopt
TYPE : ACVRP
DIMENSION : 5
EDGE_WEIGHT_TYPE : EXPLICIT
EDGE_WEIGHT_FORMAT : FULL_MATRIX
CAPACITY : 217
VEHICLES : 2
EDGE_WEIGHT_SECTION
100000 -100000 -100000 100000 100000 
100000 100000 1000000 567 -181 
100000 1000000 100000 2914 2696 
0 0 0 100000 1012 
0 0 0 1012 100000 
DEMAND_SECTION
1 0
2 0
3 0
4 52
5 237
DEPOT_SECTION
1
EOF