src/swarm_exploration/utils/lkh_mtsp_solver/resource/amtsp3_3.tour
NAME : pairopt.-194995.tour
COMMENT : Length = -194995
COMMENT : Found by LKH-3 [Keld Helsgaun] Tue Apr  9 14:20:05 2024
TYPE : TOUR
DIMENSION : 7
TOUR_SECTION
1
2
5
4
7
3
6
-1
EOF
